Version identifier: 22.1.0.0 | 2022-03-09 | 1a383f8ce
CPXPARAM_Read_DataCheck                          1
CPXPARAM_TimeLimit                               600
Tried aggregator 3 times.
MIP Presolve eliminated 126956 rows and 9966 columns.
MIP Presolve modified 1345 coefficients.
Aggregator did 118801 substitutions.
Reduced MIP has 11346 rows, 121679 columns, and 254940 nonzeros.
Reduced MIP has 121637 binaries, 42 generals, 0 SOSs, and 0 indicators.
Presolve time = 1.66 sec. (1614.08 ticks)
Tried aggregator 1 time.
Detecting symmetries...
Reduced MIP has 11346 rows, 121679 columns, and 254940 nonzeros.
Reduced MIP has 121637 binaries, 42 generals, 0 SOSs, and 0 indicators.
Presolve time = 0.35 sec. (210.29 ticks)
Probing fixed 63 vars, tightened 0 bounds.
Probing changed sense of 11 constraints.
Probing time = 0.30 sec. (32.92 ticks)
Clique table members: 246221.
MIP emphasis: balance optimality and feasibility.
MIP search method: dynamic search.
Parallel mode: deterministic, using up to 8 threads.
Root relaxation solution time = 1.96 sec. (801.21 ticks)

        Nodes                                         Cuts/
   Node  Left     Objective  IInf  Best Integer    Best Bound    ItCnt     Gap

      0     0       42.3726  8323                     42.3726       26         
      0     0       66.0000  1007                    Cuts: 35    18968         
      0     0       66.0000   939                    Cuts: 95    31917         
      0     0       66.0000   997                ZeroHalf: 48    44776         
      0     0       66.0000   802                ZeroHalf: 45    58646         
      0     0       66.0000  1098                ZeroHalf: 59    71790         
Heuristic still looking.
Heuristic still looking.
Heuristic still looking.
      0     2       66.0000  1098                     66.0000    71790         
Elapsed time = 478.96 sec. (263676.93 ticks, tree = 0.02 MB, solutions = 0)
      1     3       66.0000  1093                     66.0000    73493         
      2     4       66.0000   854                     66.0000    83950         
      3     3       66.0000   997                     66.0000    82896         
      4     4       66.0000  1033                     66.0000    78859         
      5     5       66.0000   799                     66.0000    91260         
      6     6       66.0000   814                     66.0000   106369         

Zero-half cuts applied:  182
Lift and project cuts applied:  2
Gomory fractional cuts applied:  27

Root node processing (before b&c):
  Real time             =  478.62 sec. (263541.50 ticks)
Parallel b&c, 8 threads:
  Real time             =  121.48 sec. (38966.25 ticks)
  Sync time (average)   =   58.50 sec.
  Wait time (average)   =    0.00 sec.
                          ------------
Total (root+branch&cut) =  600.10 sec. (302507.75 ticks)
